\* column_knapsack_problem *\
Minimize
knapsack: 13 col_0 + 12 col_1 + 7 col_10 + 12 col_100 + 14 col_101
 + 13 col_102 + 11 col_103 + 12 col_104 + 12 col_105 + 11 col_106 + 15 col_107
 + 12 col_108 + 13 col_109 + 9 col_11 + 11 col_110 + 12 col_111 + 13 col_112
 + 7 col_113 + 13 col_114 + 13 col_115 + 12 col_116 + 13 col_117 + 12 col_118
 + 8 col_119 + 11 col_12 + 13 col_120 + 11 col_121 + 10 col_122 + 8 col_123
 + 10 col_124 + 13 col_125 + 11 col_126 + 10 col_127 + 12 col_128 + 9 col_129
 + 10 col_13 + 12 col_130 + 13 col_131 + 13 col_132 + 14 col_133 + 12 col_134
 + 12 col_135 + 11 col_136 + 10 col_137 + 11 col_138 + 5 col_139 + 10 col_14
 + 10 col_140 + 8 col_141 + 13 col_142 + 10 col_143 + 10 col_144 + 13 col_145
 + 9 col_146 + 14 col_147 + 8 col_148 + 9 col_149 + 9 col_15 + 14 col_150
 + 13 col_151 + 12 col_152 + 15 col_153 + 10 col_154 + 12 col_155 + 12 col_156
 + 12 col_157 + 9 col_158 + 11 col_159 + 9 col_16 + 10 col_160 + 11 col_161
 + 9 col_162 + 11 col_163 + 12 col_164 + 11 col_165 + 13 col_166 + 11 col_167
 + 12 col_168 + 13 col_169 + 15 col_17 + 13 col_170 + 13 col_171 + 8 col_172
 + 11 col_173 + 11 col_174 + 14 col_175 + 12 col_176 + 7 col_177 + 10 col_178
 + 10 col_179 + 5 col_18 + 12 col_180 + 11 col_181 + 11 col_182 + 13 col_183
 + 9 col_184 + 12 col_185 + 11 col_186 + 13 col_187 + 10 col_188 + 14 col_189
 + 9 col_19 + 12 col_190 + 13 col_191 + 10 col_192 + 11 col_193 + 14 col_194
 + 9 col_195 + 11 col_196 + 11 col_197 + 8 col_198 + 10 col_199 + 12 col_2
 + 15 col_20 + 11 col_200 + 9 col_201 + 12 col_202 + 12 col_203 + 12 col_204
 + 15 col_205 + 14 col_206 + 12 col_207 + 12 col_208 + 9 col_209 + 5 col_21
 + 13 col_210 + 13 col_211 + 12 col_212 + 11 col_213 + 12 col_214 + 9 col_215
 + 8 col_217 + 14 col_218 + 12 col_219 + 13 col_22 + 9 col_220 + 13 col_221
 + 9 col_222 + 10 col_223 + 10 col_224 + 13 col_225 + 12 col_226 + 10 col_227
 + 8 col_228 + 14 col_229 + 4 col_23 + 12 col_230 + 9 col_231 + 13 col_232
 + 10 col_233 + 9 col_234 + 8 col_235 + 12 col_236 + 13 col_237 + 10 col_238
 + 10 col_239 + 9 col_24 + 11 col_240 + 11 col_241 + 15 col_242 + 10 col_243
 + 12 col_244 + 13 col_245 + 8 col_246 + 12 col_247 + 9 col_248 + 15 col_249
 + 8 col_25 + 11 col_250 + 11 col_251 + 13 col_252 + 10 col_253 + 15 col_254
 + 12 col_255 + 12 col_256 + 8 col_257 + 13 col_258 + 14 col_259 + 9 col_26
 + 15 col_260 + 10 col_261 + 13 col_262 + 10 col_263 + 12 col_264 + 13 col_265
 + 10 col_266 + 13 col_267 + 11 col_268 + 11 col_269 + 5 col_27 + 11 col_270
 + 12 col_271 + 13 col_272 + 9 col_273 + 10 col_274 + 12 col_275 + 13 col_276
 + 8 col_277 + 11 col_278 + 12 col_279 + 10 col_28 + 5 col_280 + 10 col_281
 + 13 col_282 + 13 col_283 + 13 col_284 + 15 col_285 + 6 col_286 + 8 col_287
 + 8 col_288 + 11 col_289 + 9 col_29 + 9 col_290 + 13 col_291 + 7 col_292
 + 13 col_293 + 9 col_294 + 12 col_295 + 14 col_296 + 13 col_297 + 10 col_298
 + 10 col_299 + 13 col_3 + 13 col_30 + 13 col_300 + 7 col_301 + 12 col_302
 + 12 col_303 + 8 col_304 + 9 col_305 + 10 col_306 + 9 col_307 + 10 col_308
 + 9 col_309 + 7 col_31 + 6 col_310 + 9 col_311 + 8 col_312 + 13 col_313
 + 11 col_314 + 15 col_315 + 13 col_316 + 10 col_317 + 7 col_318 + 12 col_319
 + 10 col_32 + 9 col_320 + 10 col_321 + 10 col_322 + 11 col_323 + 8 col_324
 + 12 col_325 + 8 col_326 + 11 col_327 + 11 col_328 + 14 col_329 + 14 col_33
 + 7 col_330 + 11 col_331 + 10 col_332 + 13 col_333 + 11 col_334 + 12 col_335
 + 9 col_336 + 10 col_337 + 11 col_338 + 10 col_339 + 10 col_34 + 10 col_340
 + 8 col_341 + 11 col_342 + 8 col_343 + 14 col_344 + 8 col_345 + 11 col_346
 + 10 col_347 + 13 col_348 + 14 col_349 + 12 col_35 + 9 col_350 + 6 col_351
 + 13 col_352 + 7 col_353 + 13 col_354 + 11 col_355 + 9 col_356 + 13 col_357
 + 10 col_358 + 12 col_359 + 8 col_36 + 10 col_360 + 8 col_361 + 7 col_362
 + 8 col_363 + 8 col_364 + 11 col_365 + 11 col_366 + 12 col_367 + 6 col_368
 + 8 col_369 + 11 col_37 + 12 col_370 + 10 col_371 + 10 col_372 + 5 col_373
 + 10 col_374 + 8 col_375 + 10 col_376 + 10 col_377 + 13 col_378 + 9 col_379
 + 7 col_38 + 9 col_380 + 5 col_381 + 9 col_382 + 6 col_383 + 7 col_384
 + 11 col_385 + 10 col_386 + 13 col_387 + 13 col_388 + 11 col_389 + 13 col_39
 + 12 col_390 + 15 col_391 + 14 col_392 + 12 col_393 + 7 col_394 + 9 col_395
 + 13 col_396 + 13 col_397 + 10 col_398 + 11 col_399 + 12 col_4 + 12 col_40
 + 10 col_400 + 13 col_401 + 7 col_402 + 7 col_403 + 7 col_404 + 8 col_405
 + 15 col_406 + 5 col_407 + 13 col_408 + 15 col_409 + 8 col_41 + 14 col_410
 + 14 col_411 + 7 col_412 + 12 col_413 + 6 col_414 + 8 col_415 + 12 col_416
 + 10 col_417 + 9 col_418 + 11 col_419 + 11 col_42 + 13 col_420 + 14 col_421
 + 12 col_422 + 8 col_423 + 13 col_424 + 13 col_425 + 12 col_426 + 10 col_427
 + 13 col_428 + 10 col_429 + 12 col_43 + 13 col_430 + 12 col_431 + 15 col_432
 + 11 col_433 + 10 col_434 + 9 col_435 + 12 col_436 + 8 col_437 + 12 col_438
 + 8 col_439 + 11 col_44 + 13 col_440 + 10 col_441 + 10 col_442 + 6 col_443
 + 11 col_444 + 9 col_445 + 10 col_446 + 9 col_447 + 9 col_448 + 9 col_449
 + 11 col_45 + 10 col_450 + 11 col_451 + 9 col_452 + 8 col_453 + 13 col_454
 + 12 col_455 + 10 col_456 + 13 col_457 + 13 col_458 + 13 col_459 + 14 col_46
 + 13 col_460 + 11 col_461 + 13 col_462 + 11 col_463 + 12 col_464 + 14 col_465
 + 7 col_47 + 14 col_48 + 11 col_49 + 10 col_5 + 12 col_50 + 12 col_51
 + 12 col_52 + 12 col_53 + 11 col_54 + 11 col_55 + 12 col_56 + 10 col_57
 + 12 col_58 + 8 col_59 + 9 col_6 + 10 col_60 + 11 col_61 + 10 col_62
 + 11 col_63 + 14 col_64 + 13 col_65 + 14 col_66 + 13 col_67 + 12 col_68
 + 14 col_69 + 13 col_7 + 10 col_70 + 12 col_71 + 13 col_72 + 11 col_73
 + 7 col_74 + 10 col_75 + 13 col_76 + 13 col_77 + 12 col_78 + 13 col_79
 + 12 col_8 + 10 col_80 + 7 col_81 + 13 col_82 + 10 col_83 + 11 col_84
 + 13 col_85 + 13 col_86 + 14 col_87 + 14 col_88 + 11 col_89 + 12 col_9
 + 11 col_90 + 12 col_91 + 11 col_92 + 12 col_93 + 12 col_94 + 11 col_95
 + 12 col_96 + 12 col_97 + 10 col_98 + 9 col_99
Subject To
sensitivity: 2 col_0 + 3 col_1 + 8 col_10 + 3 col_100 + col_101 + 2 col_102
 + 4 col_103 + 3 col_104 + 3 col_105 + 4 col_106 + 3 col_108 + 2 col_109
 + 6 col_11 + 4 col_110 + 3 col_111 + 2 col_112 + 8 col_113 + 2 col_114
 + 2 col_115 + 3 col_116 + 2 col_117 + 3 col_118 + 7 col_119 + 4 col_12
 + 2 col_120 + 4 col_121 + 5 col_122 + 7 col_123 + 5 col_124 + 2 col_125
 + 4 col_126 + 5 col_127 + 3 col_128 + 6 col_129 + 5 col_13 + 3 col_130
 + 2 col_131 + 2 col_132 + col_133 + 3 col_134 + 3 col_135 + 4 col_136
 + 5 col_137 + 4 col_138 + 10 col_139 + 5 col_14 + 5 col_140 + 7 col_141
 + 2 col_142 + 5 col_143 + 5 col_144 + 2 col_145 + 6 col_146 + col_147
 + 7 col_148 + 6 col_149 + 6 col_15 + col_150 + 2 col_151 + 3 col_152
 + 5 col_154 + 3 col_155 + 3 col_156 + 3 col_157 + 6 col_158 + 4 col_159
 + 6 col_16 + 5 col_160 + 4 col_161 + 6 col_162 + 4 col_163 + 3 col_164
 + 4 col_165 + 2 col_166 + 4 col_167 + 3 col_168 + 2 col_169 + 2 col_170
 + 2 col_171 + 7 col_172 + 4 col_173 + 4 col_174 + col_175 + 3 col_176
 + 8 col_177 + 5 col_178 + 5 col_179 + 10 col_18 + 3 col_180 + 4 col_181
 + 4 col_182 + 2 col_183 + 6 col_184 + 3 col_185 + 4 col_186 + 2 col_187
 + 5 col_188 + col_189 + 6 col_19 + 3 col_190 + 2 col_191 + 5 col_192
 + 4 col_193 + col_194 + 6 col_195 + 4 col_196 + 4 col_197 + 7 col_198
 + 5 col_199 + 3 col_2 + 4 col_200 + 6 col_201 + 3 col_202 + 3 col_203
 + 3 col_204 + col_206 + 3 col_207 + 3 col_208 + 6 col_209 + 10 col_21
 + 2 col_210 + 2 col_211 + 3 col_212 + 4 col_213 + 3 col_214 + 6 col_215
 + 7 col_217 + col_218 + 3 col_219 + 2 col_22 + 6 col_220 + 2 col_221
 + 6 col_222 + 5 col_223 + 5 col_224 + 2 col_225 + 3 col_226 + 5 col_227
 + 7 col_228 + col_229 + 11 col_23 + 3 col_230 + 6 col_231 + 2 col_232
 + 5 col_233 + 6 col_234 + 7 col_235 + 3 col_236 + 2 col_237 + 5 col_238
 + 5 col_239 + 6 col_24 + 4 col_240 + 4 col_241 + 5 col_243 + 3 col_244
 + 2 col_245 + 7 col_246 + 3 col_247 + 6 col_248 + 7 col_25 + 4 col_250
 + 4 col_251 + 2 col_252 + 5 col_253 + 3 col_255 + 3 col_256 + 7 col_257
 + 2 col_258 + col_259 + 6 col_26 + 5 col_261 + 2 col_262 + 5 col_263
 + 3 col_264 + 2 col_265 + 5 col_266 + 2 col_267 + 4 col_268 + 4 col_269
 + 10 col_27 + 4 col_270 + 3 col_271 + 2 col_272 + 6 col_273 + 5 col_274
 + 3 col_275 + 2 col_276 + 7 col_277 + 4 col_278 + 3 col_279 + 5 col_28
 + 10 col_280 + 5 col_281 + 2 col_282 + 2 col_283 + 2 col_284 + 9 col_286
 + 7 col_287 + 7 col_288 + 4 col_289 + 6 col_29 + 6 col_290 + 2 col_291
 + 8 col_292 + 2 col_293 + 6 col_294 + 3 col_295 + col_296 + 2 col_297
 + 5 col_298 + 5 col_299 + 2 col_3 + 2 col_30 + 2 col_300 + 8 col_301
 + 3 col_302 + 3 col_303 + 7 col_304 + 6 col_305 + 5 col_306 + 6 col_307
 + 5 col_308 + 6 col_309 + 8 col_31 + 9 col_310 + 6 col_311 + 7 col_312
 + 2 col_313 + 4 col_314 + 2 col_316 + 5 col_317 + 8 col_318 + 3 col_319
 + 5 col_32 + 6 col_320 + 5 col_321 + 5 col_322 + 4 col_323 + 7 col_324
 + 3 col_325 + 7 col_326 + 4 col_327 + 4 col_328 + col_329 + col_33
 + 8 col_330 + 4 col_331 + 5 col_332 + 2 col_333 + 4 col_334 + 3 col_335
 + 6 col_336 + 5 col_337 + 4 col_338 + 5 col_339 + 5 col_34 + 5 col_340
 + 7 col_341 + 4 col_342 + 7 col_343 + col_344 + 7 col_345 + 4 col_346
 + 5 col_347 + 2 col_348 + col_349 + 3 col_35 + 6 col_350 + 9 col_351
 + 2 col_352 + 8 col_353 + 2 col_354 + 4 col_355 + 6 col_356 + 2 col_357
 + 5 col_358 + 3 col_359 + 7 col_36 + 5 col_360 + 7 col_361 + 8 col_362
 + 7 col_363 + 7 col_364 + 4 col_365 + 4 col_366 + 3 col_367 + 9 col_368
 + 7 col_369 + 4 col_37 + 3 col_370 + 5 col_371 + 5 col_372 + 10 col_373
 + 5 col_374 + 7 col_375 + 5 col_376 + 5 col_377 + 2 col_378 + 6 col_379
 + 8 col_38 + 6 col_380 + 10 col_381 + 6 col_382 + 9 col_383 + 8 col_384
 + 4 col_385 + 5 col_386 + 2 col_387 + 2 col_388 + 4 col_389 + 2 col_39
 + 3 col_390 + col_392 + 3 col_393 + 8 col_394 + 6 col_395 + 2 col_396
 + 2 col_397 + 5 col_398 + 4 col_399 + 3 col_4 + 3 col_40 + 5 col_400
 + 2 col_401 + 8 col_402 + 8 col_403 + 8 col_404 + 7 col_405 + 10 col_407
 + 2 col_408 + 7 col_41 + col_410 + col_411 + 8 col_412 + 3 col_413
 + 9 col_414 + 7 col_415 + 3 col_416 + 5 col_417 + 6 col_418 + 4 col_419
 + 4 col_42 + 2 col_420 + col_421 + 3 col_422 + 7 col_423 + 2 col_424
 + 2 col_425 + 3 col_426 + 5 col_427 + 2 col_428 + 5 col_429 + 3 col_43
 + 2 col_430 + 3 col_431 + 4 col_433 + 5 col_434 + 6 col_435 + 3 col_436
 + 7 col_437 + 3 col_438 + 7 col_439 + 4 col_44 + 2 col_440 + 5 col_441
 + 5 col_442 + 9 col_443 + 4 col_444 + 6 col_445 + 5 col_446 + 6 col_447
 + 6 col_448 + 6 col_449 + 4 col_45 + 5 col_450 + 4 col_451 + 6 col_452
 + 7 col_453 + 2 col_454 + 3 col_455 + 5 col_456 + 2 col_457 + 2 col_458
 + 2 col_459 + col_46 + 2 col_460 + 4 col_461 + 2 col_462 + 4 col_463
 + 3 col_464 + col_465 + 8 col_47 + col_48 + 4 col_49 + 5 col_5 + 3 col_50
 + 3 col_51 + 3 col_52 + 3 col_53 + 4 col_54 + 4 col_55 + 3 col_56 + 5 col_57
 + 3 col_58 + 7 col_59 + 6 col_6 + 5 col_60 + 4 col_61 + 5 col_62 + 4 col_63
 + col_64 + 2 col_65 + col_66 + 2 col_67 + 3 col_68 + col_69 + 2 col_7
 + 5 col_70 + 3 col_71 + 2 col_72 + 4 col_73 + 8 col_74 + 5 col_75 + 2 col_76
 + 2 col_77 + 3 col_78 + 2 col_79 + 3 col_8 + 5 col_80 + 8 col_81 + 2 col_82
 + 5 col_83 + 4 col_84 + 2 col_85 + 2 col_86 + col_87 + col_88 + 4 col_89
 + 3 col_9 + 4 col_90 + 3 col_91 + 4 col_92 + 3 col_93 + 3 col_94 + 4 col_95
 + 3 col_96 + 3 col_97 + 5 col_98 + 6 col_99 >= 1529.6
Binaries
col_0
col_1
col_10
col_100
col_101
col_102
col_103
col_104
col_105
col_106
col_107
col_108
col_109
col_11
col_110
col_111
col_112
col_113
col_114
col_115
col_116
col_117
col_118
col_119
col_12
col_120
col_121
col_122
col_123
col_124
col_125
col_126
col_127
col_128
col_129
col_13
col_130
col_131
col_132
col_133
col_134
col_135
col_136
col_137
col_138
col_139
col_14
col_140
col_141
col_142
col_143
col_144
col_145
col_146
col_147
col_148
col_149
col_15
col_150
col_151
col_152
col_153
col_154
col_155
col_156
col_157
col_158
col_159
col_16
col_160
col_161
col_162
col_163
col_164
col_165
col_166
col_167
col_168
col_169
col_17
col_170
col_171
col_172
col_173
col_174
col_175
col_176
col_177
col_178
col_179
col_18
col_180
col_181
col_182
col_183
col_184
col_185
col_186
col_187
col_188
col_189
col_19
col_190
col_191
col_192
col_193
col_194
col_195
col_196
col_197
col_198
col_199
col_2
col_20
col_200
col_201
col_202
col_203
col_204
col_205
col_206
col_207
col_208
col_209
col_21
col_210
col_211
col_212
col_213
col_214
col_215
col_217
col_218
col_219
col_22
col_220
col_221
col_222
col_223
col_224
col_225
col_226
col_227
col_228
col_229
col_23
col_230
col_231
col_232
col_233
col_234
col_235
col_236
col_237
col_238
col_239
col_24
col_240
col_241
col_242
col_243
col_244
col_245
col_246
col_247
col_248
col_249
col_25
col_250
col_251
col_252
col_253
col_254
col_255
col_256
col_257
col_258
col_259
col_26
col_260
col_261
col_262
col_263
col_264
col_265
col_266
col_267
col_268
col_269
col_27
col_270
col_271
col_272
col_273
col_274
col_275
col_276
col_277
col_278
col_279
col_28
col_280
col_281
col_282
col_283
col_284
col_285
col_286
col_287
col_288
col_289
col_29
col_290
col_291
col_292
col_293
col_294
col_295
col_296
col_297
col_298
col_299
col_3
col_30
col_300
col_301
col_302
col_303
col_304
col_305
col_306
col_307
col_308
col_309
col_31
col_310
col_311
col_312
col_313
col_314
col_315
col_316
col_317
col_318
col_319
col_32
col_320
col_321
col_322
col_323
col_324
col_325
col_326
col_327
col_328
col_329
col_33
col_330
col_331
col_332
col_333
col_334
col_335
col_336
col_337
col_338
col_339
col_34
col_340
col_341
col_342
col_343
col_344
col_345
col_346
col_347
col_348
col_349
col_35
col_350
col_351
col_352
col_353
col_354
col_355
col_356
col_357
col_358
col_359
col_36
col_360
col_361
col_362
col_363
col_364
col_365
col_366
col_367
col_368
col_369
col_37
col_370
col_371
col_372
col_373
col_374
col_375
col_376
col_377
col_378
col_379
col_38
col_380
col_381
col_382
col_383
col_384
col_385
col_386
col_387
col_388
col_389
col_39
col_390
col_391
col_392
col_393
col_394
col_395
col_396
col_397
col_398
col_399
col_4
col_40
col_400
col_401
col_402
col_403
col_404
col_405
col_406
col_407
col_408
col_409
col_41
col_410
col_411
col_412
col_413
col_414
col_415
col_416
col_417
col_418
col_419
col_42
col_420
col_421
col_422
col_423
col_424
col_425
col_426
col_427
col_428
col_429
col_43
col_430
col_431
col_432
col_433
col_434
col_435
col_436
col_437
col_438
col_439
col_44
col_440
col_441
col_442
col_443
col_444
col_445
col_446
col_447
col_448
col_449
col_45
col_450
col_451
col_452
col_453
col_454
col_455
col_456
col_457
col_458
col_459
col_46
col_460
col_461
col_462
col_463
col_464
col_465
col_47
col_48
col_49
col_5
col_50
col_51
col_52
col_53
col_54
col_55
col_56
col_57
col_58
col_59
col_6
col_60
col_61
col_62
col_63
col_64
col_65
col_66
col_67
col_68
col_69
col_7
col_70
col_71
col_72
col_73
col_74
col_75
col_76
col_77
col_78
col_79
col_8
col_80
col_81
col_82
col_83
col_84
col_85
col_86
col_87
col_88
col_89
col_9
col_90
col_91
col_92
col_93
col_94
col_95
col_96
col_97
col_98
col_99
End
